3
Lattice="15.999999999993477 0.0 0.0 0.0 15.999999999993477 0.0 0.0 0.0 18.35731599988853" Properties=species:S:1:pos:R:3:ref_forces:R:3 name=CO2_eq family=mol_CO2 is_ref=T w_e=1.0 w_f=1.0 ref_energy=-24338.188351983496 pbc="T T T"
C        8.00000000       8.00000000       9.17865798       0.00000000       0.00000000       0.00013580
O        8.00000000       8.00000000      10.36188005      -0.00000000       0.00000000       0.03227257
O        8.00000000       8.00000000       7.99543597      -0.00000000       0.00000000      -0.03240679
3
Lattice="15.999999999993477 0.0 0.0 0.0 15.999999999993477 0.0 0.0 0.0 18.35731599988853" Properties=species:S:1:pos:R:3:ref_forces:R:3 name=CO2_sym-0.08 family=mol_CO2 is_ref=F w_e=1.0 w_f=1.0 ref_energy=-24320.89238753034 pbc="T T T"
C        8.00000000       8.00000000       9.17865798       0.00000000      -0.00000000       0.00006269
O        8.00000000       8.00000000      10.28188005      -0.00000000       0.00000000     239.02007334
O        8.00000000       8.00000000       8.07543590      -0.00000000      -0.00000000    -239.02013099
3
Lattice="15.999999999993477 0.0 0.0 0.0 15.999999999993477 0.0 0.0 0.0 18.35731599988853" Properties=species:S:1:pos:R:3:ref_forces:R:3 name=CO2_sym-0.04 family=mol_CO2 is_ref=F w_e=1.0 w_f=1.0 ref_energy=-24334.24409891412 pbc="T T T"
C        8.00000000       8.00000000       9.17865798       0.00000000       0.00000000      -0.00002705
O        8.00000000       8.00000000      10.32188005      -0.00000000      -0.00000000     102.22833032
O        8.00000000       8.00000000       8.03543590      -0.00000000      -0.00000000    -102.22832156
3
Lattice="15.999999999993477 0.0 0.0 0.0 15.999999999993477 0.0 0.0 0.0 18.35731599988853" Properties=species:S:1:pos:R:3:ref_forces:R:3 name=CO2_sym+0.04 family=mol_CO2 is_ref=F w_e=1.0 w_f=1.0 ref_energy=-24334.73715649091 pbc="T T T"
C        8.00000000       8.00000000       9.17865798       0.00000000      -0.00000000       0.00003271
O        8.00000000       8.00000000      10.40188005      -0.00000000       0.00000000     -82.43744126
O        8.00000000       8.00000000       7.95543590      -0.00000000      -0.00000000      82.43739606
3
Lattice="15.999999999993477 0.0 0.0 0.0 15.999999999993477 0.0 0.0 0.0 18.35731599988853" Properties=species:S:1:pos:R:3:ref_forces:R:3 name=CO2_sym+0.08 family=mol_CO2 is_ref=F w_e=1.0 w_f=1.0 ref_energy=-24325.721174039347 pbc="T T T"
C        8.00000000       8.00000000       9.17865798       0.00000000      -0.00000000       0.00000981
O        8.00000000       8.00000000      10.44188005      -0.00000000       0.00000000    -139.57333376
O        8.00000000       8.00000000       7.91543590      -0.00000000      -0.00000000     139.57332938
3
Lattice="15.999999999993477 0.0 0.0 0.0 15.999999999993477 0.0 0.0 0.0 18.35731599988853" Properties=species:S:1:pos:R:3:ref_forces:R:3 name=CO2_sym+0.16 family=mol_CO2 is_ref=F w_e=1.0 w_f=1.0 ref_energy=-24296.543331410838 pbc="T T T"
C        8.00000000       8.00000000       9.17865798       0.00000000      -0.00000000      -0.00001066
O        8.00000000       8.00000000      10.52188005      -0.00000000      -0.00000000    -215.76870184
O        8.00000000       8.00000000       7.83543590      -0.00000000      -0.00000000     215.76873251
3
Lattice="15.999999999993477 0.0 0.0 0.0 15.999999999993477 0.0 0.0 0.0 18.35731599988853" Properties=species:S:1:pos:R:3:ref_forces:R:3 name=CO2_one+0.10 family=mol_CO2 is_ref=F w_e=1.0 w_f=1.0 ref_energy=-24329.388954198745 pbc="T T T"
C        8.00000000       8.00000000       9.17865798       0.00000000      -0.00000000     144.16704381
O        8.00000000       8.00000000      10.46188005      -0.00000000      -0.00000000    -154.89724547
O        8.00000000       8.00000000       7.99543597      -0.00000000       0.00000000      10.38827766
3
Lattice="15.999999999993477 0.0 0.0 0.0 15.999999999993477 0.0 0.0 0.0 18.35731599988853" Properties=species:S:1:pos:R:3:ref_forces:R:3 name=CO2_one+0.20 family=mol_CO2 is_ref=F w_e=1.0 w_f=1.0 ref_energy=-24309.826991117476 pbc="T T T"
C        8.00000000       8.00000000       9.17865798       0.00000000       0.00000000     204.09366825
O        8.00000000       8.00000000      10.56188005      -0.00000000      -0.00000000    -224.04350052
O        8.00000000       8.00000000       7.99543597      -0.00000000       0.00000000      19.17923452
3
Lattice="15.999999999993477 0.0 0.0 0.0 15.999999999993477 0.0 0.0 0.0 18.35731599988853" Properties=species:S:1:pos:R:3:ref_forces:R:3 name=CO2_one+0.40 family=mol_CO2 is_ref=F w_e=1.0 w_f=1.0 ref_energy=-24261.617370466756 pbc="T T T"
C        8.00000000       8.00000000       9.17865798       0.00000000      -0.00000000     204.11972206
O        8.00000000       8.00000000      10.76188005      -0.00000000      -0.00000000    -239.84665331
O        8.00000000       8.00000000       7.99543597      -0.00000000      -0.00000000      34.31443695
3
Lattice="15.999999999993477 0.0 0.0 0.0 15.999999999993477 0.0 0.0 0.0 18.35731599988853" Properties=species:S:1:pos:R:3:ref_forces:R:3 name=CO2_one+0.60 family=mol_CO2 is_ref=F w_e=1.0 w_f=1.0 ref_energy=-24217.70127794542 pbc="T T T"
C        8.00000000       8.00000000       9.17865798       0.00000000       0.00000000     145.00663109
O        8.00000000       8.00000000      10.96188005      -0.00000000      -0.00000000    -195.17452349
O        8.00000000       8.00000000       7.99543597      -0.00000000      -0.00000000      48.53724624
3
Lattice="15.999999999993477 0.0 0.0 0.0 15.999999999993477 0.0 0.0 0.0 18.35731599988853" Properties=species:S:1:pos:R:3:ref_forces:R:3 name=CO2_bend170 family=mol_CO2 is_ref=F w_e=1.0 w_f=1.0 ref_energy=-24336.596228689024 pbc="T T T"
C        8.00000000       8.00000000       9.17865798      30.26145593       0.00000000       2.69640360
O        8.00000000       8.00000000      10.36188005     -15.32688043      -0.00000000       2.24980588
O        8.20546434       8.00000000       8.01341177     -14.47912848       0.00000000      -4.73615224
3
Lattice="15.999999999993477 0.0 0.0 0.0 15.999999999993477 0.0 0.0 0.0 18.35731599988853" Properties=species:S:1:pos:R:3:ref_forces:R:3 name=CO2_bend160 family=mol_CO2 is_ref=F w_e=1.0 w_f=1.0 ref_energy=-24331.82520885276 pbc="T T T"
C        8.00000000       8.00000000       9.17865798      58.50427129      -0.00000000      10.32654317
O        8.00000000       8.00000000      10.36188005     -31.52844533      -0.00000000       9.09464528
O        8.40468576       8.00000000       8.06679299     -27.03052765       0.00000000     -17.18720182
3
Lattice="15.999999999993477 0.0 0.0 0.0 15.999999999993477 0.0 0.0 0.0 18.35731599988853" Properties=species:S:1:pos:R:3:ref_forces:R:3 name=CO2_bend150 family=mol_CO2 is_ref=F w_e=1.0 w_f=1.0 ref_energy=-24323.465598778923 pbc="T T T"
C        8.00000000       8.00000000       9.17865798      83.01530469      -0.00000000      22.23499560
O        8.00000000       8.00000000      10.36188005     -49.79335383       0.00000000      21.10681080
O        8.59161100       8.00000000       8.15395766     -33.40311453      -0.00000000     -40.41175745
3
Lattice="15.999999999993477 0.0 0.0 0.0 15.999999999993477 0.0 0.0 0.0 18.35731599988853" Properties=species:S:1:pos:R:3:ref_forces:R:3 name=CO2_bend140 family=mol_CO2 is_ref=F w_e=1.0 w_f=1.0 ref_energy=-24311.005177575338 pbc="T T T"
C        8.00000000       8.00000000       9.17865798     102.68656855      -0.00000000      37.33402062
O        8.00000000       8.00000000      10.36188005     -71.99365022      -0.00000000      39.36064522
O        8.76056044       8.00000000       8.27225734     -30.69097663      -0.00000000     -75.65192298
3
Lattice="15.999999999993477 0.0 0.0 0.0 17.526477999852453 0.0 0.0 0.0 16.596309000178973" Properties=species:S:1:pos:R:3:ref_forces:R:3 name=H2O_eq family=mol_H2O is_ref=T w_e=1.0 w_f=1.0 ref_energy=-11037.74381794476 pbc="T T T"
O        8.00000000       8.76323900       8.62617300      -0.00000423       0.00001091      -0.05863163
H        8.00000000       9.53248668       8.02706517       0.00000158      -0.10933390       0.03572595
H        8.00000000       7.99399130       8.02706520       0.00000064       0.10932499       0.03571482
3
Lattice="15.999999999993477 0.0 0.0 0.0 17.526477999852453 0.0 0.0 0.0 16.596309000178973" Properties=species:S:1:pos:R:3:ref_forces:R:3 name=H2O_oh-0.08 family=mol_H2O is_ref=F w_e=1.0 w_f=1.0 ref_energy=-11033.578783188836 pbc="T T T"
O        8.00000000       8.76323900       8.62617300      -0.00000456     -92.25988497      62.92484989
H        8.00000000       9.46937048       8.07622152       0.00000204      92.07909766     -67.20202971
H        8.00000000       7.99399130       8.02706520       0.00000050       0.21409614       4.27881093
3
Lattice="15.999999999993477 0.0 0.0 0.0 17.526477999852453 0.0 0.0 0.0 16.596309000178973" Properties=species:S:1:pos:R:3:ref_forces:R:3 name=H2O_oh+0.08 family=mol_H2O is_ref=F w_e=1.0 w_f=1.0 ref_energy=-11034.793635918024 pbc="T T T"
O        8.00000000       8.76323900       8.62617300      -0.00000371      55.14722394     -35.21099900
H        8.00000000       9.59560287       7.97790882       0.00000133     -55.08946257      39.27457749
H        8.00000000       7.99399130       8.02706520       0.00000074      -0.03675711      -4.01121045
3
Lattice="15.999999999993477 0.0 0.0 0.0 17.526477999852453 0.0 0.0 0.0 16.596309000178973" Properties=species:S:1:pos:R:3:ref_forces:R:3 name=H2O_oh+0.20 family=mol_H2O is_ref=F w_e=1.0 w_f=1.0 ref_energy=-11023.237880012484 pbc="T T T"
O        8.00000000       8.76323900       8.62617300      -0.00000349      96.50023479     -57.87100304
H        8.00000000       9.69027716       7.90417431       0.00000100     -96.06462726      67.33362149
H        8.00000000       7.99399130       8.02706520       0.00000082      -0.43515854      -9.40653610
3
Lattice="15.999999999993477 0.0 0.0 0.0 17.526477999852453 0.0 0.0 0.0 16.596309000178973" Properties=species:S:1:pos:R:3:ref_forces:R:3 name=H2O_oh+0.40 family=mol_H2O is_ref=F w_e=1.0 w_f=1.0 ref_energy=-10997.288306559045 pbc="T T T"
O        8.00000000       8.76323900       8.62617300      -0.00000312     112.71404613     -60.11038957
H        8.00000000       9.84806764       7.78128344       0.00000067    -111.13357164      76.14320812
H        8.00000000       7.99399130       8.02706520       0.00000097      -1.59856632     -15.98036026
3
Lattice="15.999999999993477 0.0 0.0 0.0 17.526477999852453 0.0 0.0 0.0 16.596309000178973" Properties=species:S:1:pos:R:3:ref_forces:R:3 name=H2O_oh+0.70 family=mol_H2O is_ref=F w_e=1.0 w_f=1.0 ref_energy=-10959.558598068024 pbc="T T T"
O        8.00000000       8.76323900       8.62617300      -0.00000291      98.06123764     -42.54679638
H        8.00000000      10.08475336       7.59694715       0.00000057     -93.91876971      63.10247284
H        8.00000000       7.99399130       8.02706520       0.00000115      -4.17751826     -20.54147432
3
Lattice="15.999999999993477 0.0 0.0 0.0 17.526477999852453 0.0 0.0 0.0 16.596309000178973" Properties=species:S:1:pos:R:3:ref_forces:R:3 name=H2O_bend89 family=mol_H2O is_ref=F w_e=1.0 w_f=1.0 ref_energy=-11034.096538612532 pbc="T T T"
O        8.00000000       8.76323900       8.62617300      -0.00000412       3.34508540     -24.99886570
H        8.00000000       9.53248668       8.02706517       0.00000155      27.84645757      16.40801586
H        8.00000000       8.17526329       7.84838335       0.00000065     -31.14952755       8.64582563
3
Lattice="15.999999999993477 0.0 0.0 0.0 17.526477999852453 0.0 0.0 0.0 16.596309000178973" Properties=species:S:1:pos:R:3:ref_forces:R:3 name=H2O_bend97 family=mol_H2O is_ref=F w_e=1.0 w_f=1.0 ref_energy=-11036.993404652292 pbc="T T T"
O        8.00000000       8.76323900       8.62617300      -0.00000416       0.80031541     -12.67054161
H        8.00000000       9.53248668       8.02706517       0.00000154      11.87178490       7.10046693
H        8.00000000       8.07273803       7.93778315       0.00000078     -12.64680414       5.60541349
3
Lattice="15.999999999993477 0.0 0.0 0.0 17.526477999852453 0.0 0.0 0.0 16.596309000178973" Properties=species:S:1:pos:R:3:ref_forces:R:3 name=H2O_bend111 family=mol_H2O is_ref=F w_e=1.0 w_f=1.0 ref_energy=-11037.063255052184 pbc="T T T"
O        8.00000000       8.76323900       8.62617300      -0.00000438       0.77360041      13.02101233
H        8.00000000       9.53248668       8.02706517       0.00000171     -10.53335673      -5.89356636
H        8.00000000       7.92671229       8.12527857       0.00000050       9.69395871      -7.14182194
3
Lattice="15.999999999993477 0.0 0.0 0.0 17.526477999852453 0.0 0.0 0.0 16.596309000178973" Properties=species:S:1:pos:R:3:ref_forces:R:3 name=H2O_bend119 family=mol_H2O is_ref=F w_e=1.0 w_f=1.0 ref_energy=-11034.818402946577 pbc="T T T"
O        8.00000000       8.76323900       8.62617300      -0.00000439       3.51861508      27.04190503
H        8.00000000       9.53248668       8.02706517       0.00000178     -20.74856496     -11.03805829
H        8.00000000       7.86514228       8.24657525       0.00000058      17.14359859     -16.01829373
5
Lattice="17.25823599991694 0.0 0.0 0.0 17.25823599991694 0.0 0.0 0.0 17.25823599991694" Properties=species:S:1:pos:R:3:ref_forces:R:3 name=CH4_eq family=mol_CH4 is_ref=T w_e=1.0 w_f=1.0 ref_energy=-5228.673430012424 pbc="T T T"
C        8.62911800       8.62911800       8.62911800       0.00000069       0.00000069       0.00000069
H        9.26752309       9.26752309       9.26752309       0.03945284       0.03945285       0.03945287
H        7.99071291       7.99071291       9.26752309      -0.03945302      -0.03945304       0.03945303
H        9.26752309       7.99071291       7.99071291       0.03945300      -0.03945304      -0.03945306
H        7.99071291       9.26752309       7.99071291      -0.03945303       0.03945301      -0.03945306
5
Lattice="17.25823599991694 0.0 0.0 0.0 17.25823599991694 0.0 0.0 0.0 17.25823599991694" Properties=species:S:1:pos:R:3:ref_forces:R:3 name=CH4_b01-0.06 family=mol_CH4 is_ref=F w_e=1.0 w_f=1.0 ref_energy=-5227.137943423844 pbc="T T T"
C        8.62911800       8.62911800       8.62911800     -29.45725437     -29.45725414     -29.45725437
H        9.23288208       9.23288208       9.23288208      31.21645457      31.21645457      31.21645480
H        7.99071291       7.99071291       9.26752309      -0.48169291      -0.48169292      -0.79649513
H        9.26752309       7.99071291       7.99071291      -0.79649516      -0.48169294      -0.48169294
H        7.99071291       9.26752309       7.99071291      -0.48169292      -0.79649514      -0.48169294
5
Lattice="17.25823599991694 0.0 0.0 0.0 17.25823599991694 0.0 0.0 0.0 17.25823599991694" Properties=species:S:1:pos:R:3:ref_forces:R:3 name=CH4_b01+0.06 family=mol_CH4 is_ref=F w_e=1.0 w_f=1.0 ref_energy=-5227.4538729314445 pbc="T T T"
C        8.62911800       8.62911800       8.62911800      20.43414232      20.43414229      20.43414229
H        9.30216411       9.30216411       9.30216411     -22.23583088     -22.23583085     -22.23583085
H        7.99071291       7.99071291       9.26752309       0.46320262       0.46320261       0.89906656
H        9.26752309       7.99071291       7.99071291       0.89906652       0.46320261       0.46320260
H        7.99071291       9.26752309       7.99071291       0.46320262       0.89906654       0.46320259
5
Lattice="17.25823599991694 0.0 0.0 0.0 17.25823599991694 0.0 0.0 0.0 17.25823599991694" Properties=species:S:1:pos:R:3:ref_forces:R:3 name=CH4_b01+0.15 family=mol_CH4 is_ref=F w_e=1.0 w_f=1.0 ref_energy=-5222.149785467608 pbc="T T T"
C        8.62911800       8.62911800       8.62911800      39.04185160      39.04185160      39.04185160
H        9.35412563       9.35412563       9.35412563     -43.80591199     -43.80591199     -43.80591199
H        7.99071291       7.99071291       9.26752309       1.26763002       1.26763000       2.23157856
H        9.26752309       7.99071291       7.99071291       2.23157851       1.26763001       1.26762999
H        7.99071291       9.26752309       7.99071291       1.26763002       2.23157853       1.26762999
5
Lattice="17.25823599991694 0.0 0.0 0.0 17.25823599991694 0.0 0.0 0.0 17.25823599991694" Properties=species:S:1:pos:R:3:ref_forces:R:3 name=CH4_b01+0.30 family=mol_CH4 is_ref=F w_e=1.0 w_f=1.0 ref_energy=-5208.30651544266 pbc="T T T"
C        8.62911800       8.62911800       8.62911800      49.85366500      49.85366500      49.85366500
H        9.44072818       9.44072818       9.44072818     -59.55975257     -59.55975257     -59.55975257
H        7.99071291       7.99071291       9.26752309       2.57945563       2.57945561       4.55192228
H        9.26752309       7.99071291       7.99071291       4.55192222       2.57945563       2.57945561
H        7.99071291       9.26752309       7.99071291       2.57945563       4.55192224       2.57945561
2
Lattice="15.999999999993477 0.0 0.0 0.0 15.999999999993477 0.0 0.0 0.0 16.73716599978928" Properties=species:S:1:pos:R:3:ref_forces:R:3 name=H2_eq family=mol_H2 is_ref=T w_e=1.0 w_f=1.0 ref_energy=-724.939873209664 pbc="T T T"
H        8.00000000       8.00000000       8.75387499      -0.00000000      -0.00000000      -0.09122962
H        8.00000000       8.00000000       7.98329101       0.00000000      -0.00000000       0.09122954
2
Lattice="15.999999999993477 0.0 0.0 0.0 15.999999999993477 0.0 0.0 0.0 16.73716599978928" Properties=species:S:1:pos:R:3:ref_forces:R:3 name=H2_b01-0.06 family=mol_H2 is_ref=F w_e=1.0 w_f=1.0 ref_energy=-723.36522981058 pbc="T T T"
H        8.00000000       8.00000000       8.75387499      -0.00000000      -0.00000000      56.09209092
H        8.00000000       8.00000000       8.04329101       0.00000000      -0.00000000     -56.07339089
2
Lattice="15.999999999993477 0.0 0.0 0.0 15.999999999993477 0.0 0.0 0.0 16.73716599978928" Properties=species:S:1:pos:R:3:ref_forces:R:3 name=H2_b01+0.06 family=mol_H2 is_ref=F w_e=1.0 w_f=1.0 ref_energy=-723.7069179502961 pbc="T T T"
H        8.00000000       8.00000000       8.75387499       0.00000000       0.00000000     -38.52998791
H        8.00000000       8.00000000       7.92329101      -0.00000000       0.00000000      38.53373064
2
Lattice="15.999999999993477 0.0 0.0 0.0 15.999999999993477 0.0 0.0 0.0 16.73716599978928" Properties=species:S:1:pos:R:3:ref_forces:R:3 name=H2_b01+0.15 family=mol_H2 is_ref=F w_e=1.0 w_f=1.0 ref_energy=-718.432532472284 pbc="T T T"
H        8.00000000       8.00000000       8.75387499      -0.00000000      -0.00000000     -75.53170350
H        8.00000000       8.00000000       7.83329101       0.00000000      -0.00000000      75.53622221
2
Lattice="15.999999999993477 0.0 0.0 0.0 15.999999999993477 0.0 0.0 0.0 16.73716599978928" Properties=species:S:1:pos:R:3:ref_forces:R:3 name=H2_b01+0.30 family=mol_H2 is_ref=F w_e=1.0 w_f=1.0 ref_energy=-704.6313479474361 pbc="T T T"
H        8.00000000       8.00000000       8.75387499       0.00000000      -0.00000000    -103.06193454
H        8.00000000       8.00000000       7.68329101       0.00000000      -0.00000000     103.07175418
2
Lattice="15.999999999993477 0.0 0.0 0.0 15.999999999993477 0.0 0.0 0.0 17.15033999988658" Properties=species:S:1:pos:R:3:ref_forces:R:3 name=CO_eq family=mol_CO is_ref=T w_e=1.0 w_f=1.0 ref_energy=-14002.613015459769 pbc="T T T"
O        8.00000000       8.00000000       9.15033188       0.00000000       0.00000000       0.09082267
C        8.00000000       8.00000000       8.00010348      -0.00000000      -0.00000000       0.09481006
2
Lattice="15.999999999993477 0.0 0.0 0.0 15.999999999993477 0.0 0.0 0.0 17.15033999988658" Properties=species:S:1:pos:R:3:ref_forces:R:3 name=CO_b01-0.06 family=mol_CO is_ref=F w_e=1.0 w_f=1.0 ref_energy=-13997.464333028904 pbc="T T T"
O        8.00000000       8.00000000       9.15033188       0.00000000       0.00000000     184.42818775
C        8.00000000       8.00000000       8.06010348      -0.00000000       0.00000000    -184.01284238
2
Lattice="15.999999999993477 0.0 0.0 0.0 15.999999999993477 0.0 0.0 0.0 17.15033999988658" Properties=species:S:1:pos:R:3:ref_forces:R:3 name=CO_b01+0.06 family=mol_CO is_ref=F w_e=1.0 w_f=1.0 ref_energy=-13998.69454408306 pbc="T T T"
O        8.00000000       8.00000000       9.15033188       0.00000000       0.00000000    -121.74337879
C        8.00000000       8.00000000       7.94010348      -0.00000000      -0.00000000     121.82038765
2
Lattice="15.999999999993477 0.0 0.0 0.0 15.999999999993477 0.0 0.0 0.0 17.15033999988658" Properties=species:S:1:pos:R:3:ref_forces:R:3 name=CO_b01+0.15 family=mol_CO is_ref=F w_e=1.0 w_f=1.0 ref_energy=-13982.470226356018 pbc="T T T"
O        8.00000000       8.00000000       9.15033188       0.00000000      -0.00000000    -226.24000550
C        8.00000000       8.00000000       7.85010348      -0.00000000      -0.00000000     226.19186338
2
Lattice="15.999999999993477 0.0 0.0 0.0 15.999999999993477 0.0 0.0 0.0 17.15033999988658" Properties=species:S:1:pos:R:3:ref_forces:R:3 name=CO_b01+0.30 family=mol_CO is_ref=F w_e=1.0 w_f=1.0 ref_energy=-13943.019209380633 pbc="T T T"
O        8.00000000       8.00000000       9.15033188       0.00000000       0.00000000    -283.16614640
C        8.00000000       8.00000000       7.70010348      -0.00000000       0.00000000     282.99428075
4
Lattice="17.627661999749723 0.0 0.0 0.0 17.409595999798746 0.0 0.0 0.0 16.388296999986167" Properties=species:S:1:pos:R:3:ref_forces:R:3 name=NH3_eq family=mol_NH3 is_ref=T w_e=1.0 w_f=1.0 ref_energy=-7570.901259271252 pbc="T T T"
N        8.81383100       8.46965675       8.38932636       0.00000022      -0.04929132      -0.05762922
H        8.81383100       9.42104240       7.99949637       0.00000024      -0.02604549      -0.00654041
H        9.63777788       7.99412401       7.99936720      -0.03631311       0.00318101      -0.01347870
H        7.98988412       7.99412401       7.99936720       0.03631363       0.00318098      -0.01347937
4
Lattice="17.627661999749723 0.0 0.0 0.0 17.409595999798746 0.0 0.0 0.0 16.388296999986167" Properties=species:S:1:pos:R:3:ref_forces:R:3 name=NH3_b01-0.06 family=mol_NH3 is_ref=F w_e=1.0 w_f=1.0 ref_energy=-7568.949806517849 pbc="T T T"
N        8.81383100       8.46965675       8.38932636       0.00000029     -63.29480842      21.21770635
H        8.81383100       9.36552241       8.02224567       0.00000035      64.94912347     -24.27645921
H        9.63777788       7.99412401       7.99936720      -0.90147999      -0.88551121       1.48596187
H        7.98988412       7.99412401       7.99936720       0.90148055      -0.88551099       1.48596121
4
Lattice="17.627661999749723 0.0 0.0 0.0 17.409595999798746 0.0 0.0 0.0 16.388296999986167" Properties=species:S:1:pos:R:3:ref_forces:R:3 name=NH3_b01+0.06 family=mol_NH3 is_ref=F w_e=1.0 w_f=1.0 ref_energy=-7569.37109966926 pbc="T T T"
N        8.81383100       8.46965675       8.38932636       0.00000022      43.17421786     -13.36594152
H        8.81383100       9.47656239       7.97674707       0.00000028     -45.12798589      16.34012233
H        9.63777788       7.99412401       7.99936720       0.81202579       0.92423711      -1.52217981
H        7.98988412       7.99412401       7.99936720      -0.81202528       0.92423704      -1.52218050
4
Lattice="17.627661999749723 0.0 0.0 0.0 17.409595999798746 0.0 0.0 0.0 16.388296999986167" Properties=species:S:1:pos:R:3:ref_forces:R:3 name=NH3_b01+0.15 family=mol_NH3 is_ref=F w_e=1.0 w_f=1.0 ref_energy=-7562.868140436 pbc="T T T"
N        8.81383100       8.46965675       8.38932636       0.00000025      82.22798115     -23.20043259
H        8.81383100       9.55984238       7.94262312       0.00000026     -86.88113806      30.67592824
H        9.63777788       7.99412401       7.99936720       2.06116334       2.27912863      -3.77595574
H        7.98988412       7.99412401       7.99936720      -2.06116283       2.27912853      -3.77595648
4
Lattice="17.627661999749723 0.0 0.0 0.0 17.409595999798746 0.0 0.0 0.0 16.388296999986167" Properties=species:S:1:pos:R:3:ref_forces:R:3 name=NH3_b01+0.30 family=mol_NH3 is_ref=F w_e=1.0 w_f=1.0 ref_energy=-7546.393454339321 pbc="T T T"
N        8.81383100       8.46965675       8.38932636       0.00000022     106.21201716     -23.84191893
H        8.81383100       9.69864236       7.88574987       0.00000019    -114.63270194      38.59621527
H        9.63777788       7.99412401       7.99936720       4.07832038       4.18141842      -7.41301779
H        7.98988412       7.99412401       7.99936720      -4.07831988       4.18141828      -7.41301855
5
Lattice="18.21031700020279 0.0 0.0 0.0 18.788101000101836 0.0 0.0 0.0 15.999999999993477" Properties=species:S:1:pos:R:3:ref_forces:R:3 name=HCOOH_eq family=mol_HCOOH is_ref=T w_e=1.0 w_f=1.0 ref_energy=-25072.513176412718 pbc="T T T"
O        7.99913812       8.87436699       7.99999993      -0.06876350       0.06786709       0.00000552
C        9.04106130       9.74928897       7.99999998      -0.04888571      -0.00155691       0.00000038
O       10.21508453       9.44345429       8.00000007       0.02278542       0.00564478       0.00000279
H        8.39714749       7.97117581       8.00000001      -0.00549107      -0.01789593      -0.00000265
H        8.63308835      10.79137736       7.99999995      -0.01919283       0.01952575      -0.00000060
5
Lattice="18.21031700020279 0.0 0.0 0.0 18.788101000101836 0.0 0.0 0.0 15.999999999993477" Properties=species:S:1:pos:R:3:ref_forces:R:3 name=HCOOH_b01-0.06 family=mol_HCOOH is_ref=F w_e=1.0 w_f=1.0 ref_energy=-25069.61764788474 pbc="T T T"
O        7.99913812       8.87436699       7.99999993     -33.82858464     -34.94791182       0.00000351
C        8.99511263       9.71070504       7.99999998      86.73116356      52.00210372       0.00000756
O       10.21508453       9.44345429       8.00000007     -50.60116782       0.87997476      -0.00000050
H        8.39714749       7.97117581       8.00000001      -1.36483276      -3.19751738      -0.00000261
H        8.63308835      10.79137736       7.99999995      -0.97766119     -14.66669993       0.00000001
5
Lattice="18.21031700020279 0.0 0.0 0.0 18.788101000101836 0.0 0.0 0.0 15.999999999993477" Properties=species:S:1:pos:R:3:ref_forces:R:3 name=HCOOH_b01+0.06 family=mol_HCOOH is_ref=F w_e=1.0 w_f=1.0 ref_energy=-25069.952394799508 pbc="T T T"
O        7.99913812       8.87436699       7.99999993      18.99128001      22.70270597       0.00000623
C        9.08700996       9.78787291       7.99999999     -80.93861310     -32.47542720      -0.00000473
O       10.21508453       9.44345429       8.00000007      60.47325928      -6.79414480       0.00000831
H        8.39714749       7.97117581       8.00000001       1.18220906       2.32782815      -0.00000248
H        8.63308835      10.79137736       7.99999995       0.04901114      14.29954824      -0.00000041
5
Lattice="18.21031700020279 0.0 0.0 0.0 18.788101000101836 0.0 0.0 0.0 15.999999999993477" Properties=species:S:1:pos:R:3:ref_forces:R:3 name=HCOOH_b01+0.15 family=mol_HCOOH is_ref=F w_e=1.0 w_f=1.0 ref_energy=-25057.803314054476 pbc="T T T"
O        7.99913812       8.87436699       7.99999993      30.00507360      41.34175753       0.00000639
C        9.15593296       9.84574881       7.99999999    -199.06622757     -47.00846842      -0.00001384
O       10.21508453       9.44345429       8.00000007     167.60087659     -32.14308181       0.00001430
H        8.39714749       7.97117581       8.00000001       2.48618425       4.70051862      -0.00000225
H        8.63308835      10.79137736       7.99999995      -1.33427838      33.18057033      -0.00000116
5
Lattice="18.21031700020279 0.0 0.0 0.0 18.788101000101836 0.0 0.0 0.0 15.999999999993477" Properties=species:S:1:pos:R:3:ref_forces:R:3 name=HCOOH_b01+0.30 family=mol_HCOOH is_ref=F w_e=1.0 w_f=1.0 ref_energy=-25021.381715148756 pbc="T T T"
O        7.99913812       8.87436699       7.99999993      24.85521693      50.38133162       0.00000641
C        9.27080463       9.94220866       8.00000000    -393.74879117      17.98945945      -0.00002175
O       10.21508453       9.44345429       8.00000007     370.39928297    -126.74930582       0.00002946
H        8.39714749       7.97117581       8.00000001       3.32165881       6.75204124      -0.00000215
H        8.63308835      10.79137736       7.99999995      -5.17273447      51.69435356      -0.00000089
